qbf_easy_train/easy_2301_SAT.qdimacs
p cnf 20 44
a 11 5 14 0
e 1 2 3 4 6 7 8 9 10 12 13 15 16 17 18 19 20 0
-3 1 0
-3 -2 0
-1 2 3 0
-4 -5 -6 0
4 5 -6 0
-4 5 6 0
4 -5 6 0
-7 -2 0
-7 -6 0
2 6 7 0
8 3 0
8 -7 0
-3 7 -8 0
-11 -9 0
-11 10 0
9 -10 11 0
-13 4 0
-13 -12 0
-4 12 13 0
-9 -14 -15 0
9 14 -15 0
-9 14 15 0
9 -14 15 0
-16 -13 0
-16 15 0
13 -15 16 0
-1 17 0
1 17 0
16 17 -18 0
-16 -17 -18 0
16 -17 18 0
-16 17 18 0
11 -18 -19 0
-11 18 -19 0
11 18 19 0
-11 -18 19 0
20 -8 0
20 -19 0
8 19 -20 0
-4 19 20 -18 0
10 -20 -5 -3 9 0
15 -11 -12 9 -10 5 -8 17 0
-9 -8 -2 0
20 0
