sat_easy_train/easy_2301_SAT.dimacs
p cnf 112 362
5 3 0
5 4 0
-3 -4 -5 0
-7 -5 0
-7 -6 0
5 6 7 0
-8 -2 0
-8 7 0
2 -7 8 0
-9 8 0
-9 3 0
-8 -3 9 0
-1 -9 -10 0
1 9 -10 0
-1 9 10 0
1 -9 10 0
-14 12 0
-14 -13 0
-12 13 14 0
-15 -8 0
-15 -14 0
8 14 15 0
16 -11 0
16 -15 0
11 15 -16 0
18 16 0
18 -17 0
-16 17 -18 0
13 3 -19 0
-13 -3 -19 0
13 -3 19 0
-13 3 19 0
20 -19 0
20 -12 0
19 12 -20 0
9 -20 -21 0
-9 20 -21 0
9 20 21 0
-9 -20 21 0
-21 -22 0
21 -22 0
23 18 0
23 -22 0
-18 22 -23 0
24 -11 0
24 3 0
11 -3 -24 0
25 23 0
25 -24 0
-23 24 -25 0
26 10 0
26 25 0
-10 -25 -26 0
-4 -17 -27 0
4 17 -27 0
-4 17 27 0
4 -17 27 0
28 -5 0
28 6 0
5 -6 -28 0
29 -27 0
29 -28 0
27 28 -29 0
-30 -26 0
-30 -29 0
26 29 30 0
3 5 -32 0
-3 -5 -32 0
3 -5 32 0
-3 5 32 0
33 32 0
33 27 0
-32 -27 -33 0
7 33 -34 0
-7 -33 -34 0
7 -33 34 0
-7 33 34 0
35 -31 0
35 -34 0
31 34 -35 0
36 5 -37 0
-36 -5 -37 0
36 -5 37 0
-36 5 37 0
38 -35 0
38 -37 0
35 37 -38 0
1 -39 -40 0
-1 39 -40 0
1 39 40 0
-1 -39 40 0
-41 -15 0
-41 40 0
15 -40 41 0
43 -42 0
43 9 0
42 -9 -43 0
-44 41 0
-44 -43 0
-41 43 44 0
-46 45 0
-46 -45 0
-47 44 0
-47 -46 0
-44 46 47 0
48 32 0
48 2 0
-32 -2 -48 0
-49 48 0
-49 39 0
-48 -39 49 0
-50 -2 0
-50 49 0
2 -49 50 0
-52 4 0
-52 51 0
-4 -51 52 0
-53 -2 0
-53 12 0
2 -12 53 0
-54 52 0
-54 -53 0
-52 53 54 0
-55 -50 0
-55 -54 0
50 54 55 0
-56 47 0
-56 55 0
-47 -55 56 0
-38 -56 -57 0
38 56 -57 0
-38 56 57 0
38 -56 57 0
-58 30 0
-58 -57 0
-30 57 58 0
59 -2 0
59 -20 0
2 20 -59 0
-60 28 0
-60 1 0
-28 -1 60 0
-59 -60 -61 0
59 60 -61 0
-59 60 61 0
59 -60 61 0
62 20 0
62 -61 0
-20 61 -62 0
-9 7 -63 0
9 -7 -63 0
-9 -7 63 0
9 7 63 0
-64 62 0
-64 63 0
-62 -63 64 0
65 36 0
65 -12 0
-36 12 -65 0
66 -39 0
66 33 0
39 -33 -66 0
67 65 0
67 66 0
-65 -66 -67 0
-68 -64 0
-68 67 0
64 -67 68 0
70 14 0
70 31 0
-14 -31 -70 0
71 -69 0
71 -70 0
69 70 -71 0
-72 13 0
-72 17 0
-13 -17 72 0
73 -72 0
73 -36 0
72 36 -73 0
32 73 -74 0
-32 -73 -74 0
32 -73 74 0
-32 73 74 0
-75 -71 0
-75 74 0
71 -74 75 0
68 75 -76 0
-68 -75 -76 0
68 -75 76 0
-68 75 76 0
-58 -76 -77 0
58 76 -77 0
-58 76 77 0
58 -76 77 0
-78 19 0
-78 -11 0
-19 11 78 0
-16 -73 -79 0
16 73 -79 0
-16 73 79 0
16 -73 79 0
78 -79 -80 0
-78 79 -80 0
78 79 80 0
-78 -79 80 0
-81 -8 0
-81 7 0
8 -7 81 0
-81 31 -82 0
81 -31 -82 0
-81 -31 82 0
81 31 82 0
83 82 0
83 -12 0
-82 12 -83 0
-84 -83 0
-84 27 0
83 -27 84 0
-45 -84 -85 0
45 84 -85 0
-45 84 85 0
45 -84 85 0
86 -80 0
86 85 0
80 -85 -86 0
-2 -28 -87 0
2 28 -87 0
-2 28 87 0
2 -28 87 0
88 18 0
88 20 0
-18 -20 -88 0
89 -87 0
89 88 0
87 -88 -89 0
-86 -89 -90 0
86 89 -90 0
-86 89 90 0
86 -89 90 0
-8 -53 -91 0
8 53 -91 0
-8 53 91 0
8 -53 91 0
17 -91 -92 0
-17 91 -92 0
17 91 92 0
-17 -91 92 0
93 -92 0
93 14 0
92 -14 -93 0
94 90 0
94 93 0
-90 -93 -94 0
-95 -18 0
-95 31 0
18 -31 95 0
60 79 -96 0
-60 -79 -96 0
60 -79 96 0
-60 79 96 0
-1 -42 -97 0
1 42 -97 0
-1 42 97 0
1 -42 97 0
-98 -96 0
-98 97 0
96 -97 98 0
-99 12 0
-99 -52 0
-12 52 99 0
-98 -99 -100 0
98 99 -100 0
-98 99 100 0
98 -99 100 0
-101 -5 0
-101 -39 0
5 39 101 0
102 5 0
102 -101 0
-5 101 -102 0
100 -102 -103 0
-100 102 -103 0
100 102 103 0
-100 -102 103 0
20 49 -104 0
-20 -49 -104 0
20 -49 104 0
-20 49 104 0
105 -103 0
105 -104 0
103 104 -105 0
106 -95 0
106 -105 0
95 105 -106 0
-107 -19 0
-107 -4 0
19 4 107 0
21 107 -108 0
-21 -107 -108 0
21 -107 108 0
-21 107 108 0
-109 28 0
-109 108 0
-28 -108 109 0
110 106 0
110 109 0
-106 -109 -110 0
-111 -94 0
-111 110 0
94 -110 111 0
-112 77 0
-112 -111 0
-77 111 112 0
-31 93 0
-54 -78 -67 0
78 -55 25 32 0
-45 -39 105 -42 0
-34 -25 -57 0
-39 -90 76 42 -11 75 0
45 63 65 50 28 0
-98 10 0
-68 13 -29 0
-71 -23 69 33 0
38 -99 50 96 0
-100 -105 -99 0
27 -54 0
-34 28 -6 0
-5 -30 -76 -6 -92 0
-85 -80 -61 -3 31 0
87 -23 106 -110 63 0
4 109 -52 -49 -71 -27 0
-34 16 95 22 -36 90 0
12 4 -109 0
-38 -41 0
-94 13 105 -100 56 71 0
-3 -60 -103 -112 -46 0
63 57 -66 96 0
-98 -31 -32 42 -87 -92 0
100 21 -7 -19 -74 0
-80 60 -103 0
-100 -63 -98 33 -29 0
-87 52 -21 0
-30 -102 61 96 31 -112 0
12 -15 -49 -9 0
5 -20 -84 -77 -33 0
-79 53 36 -69 0
-8 76 101 13 64 0
84 -68 -24 90 75 0
12 93 -58 -32 0
93 -56 24 -99 59 0
6 -29 14 64 108 0
-90 30 5 -85 35 0
76 104 0
35 95 50 -98 -52 0
40 43 0
-66 -47 0
-73 85 -26 0
-4 57 111 89 -81 0
95 101 0
53 -4 0
112 0
